50
500 500
1 350 602
2 347 899
3 347 525
4 340 574
5 335 103
6 332 747
7 325 698
8 318 534
9 316 20
10 315 993
11 309 798
12 307 882
13 294 729
14 291 605
15 291 745
16 279 997
17 262 897
18 258 169
19 251 234
20 249 259
21 249 462
22 246 896
23 226 102
24 206 296
25 203 871
26 187 693
27 179 283
28 177 117
29 171 18
30 170 114
31 167 113
32 165 749
33 162 899
34 156 711
35 155 907
36 151 618
37 148 322
38 143 150
39 135 126
40 134 0
41 133 780
42 113 993
43 113 403
44 110 672
45 93 221
46 80 615
47 78 977
48 76 994
49 75 270
50 66 673
